data/MCDM/NO_CORR/GEN_FROM_60/12_ITEMS_1000_GEN/K5012W15.KNP.mps
NAME          BLANK   
ROWS
 N  OBJROW
 L  R0000000
COLUMNS
    C0000000  OBJROW     -675.         R0000000  669.        
    C0000001  OBJROW     -261.         R0000000  268.        
    C0000002  OBJROW     -87.          R0000000  877.        
    C0000003  OBJROW     -660.         R0000000  153.        
    C0000004  OBJROW     -860.         R0000000  475.        
    C0000005  OBJROW     -442.         R0000000  428.        
    C0000006  OBJROW     -546.         R0000000  573.        
    C0000007  OBJROW     -44.          R0000000  438.        
    C0000008  OBJROW     -535.         R0000000  468.        
    C0000009  OBJROW     -253.         R0000000  642.        
    C0000010  OBJROW     -6.           R0000000  19.         
    C0000011  OBJROW     -167.         R0000000  26.         
RHS
    RHS       R0000000  13564.      
BOUNDS
 BV BOUND     C0000000  1.          
 BV BOUND     C0000001  1.          
 BV BOUND     C0000002  1.          
 BV BOUND     C0000003  1.          
 BV BOUND     C0000004  1.          
 BV BOUND     C0000005  1.          
 BV BOUND     C0000006  1.          
 BV BOUND     C0000007  1.          
 BV BOUND     C0000008  1.          
 BV BOUND     C0000009  1.          
 BV BOUND     C0000010  1.          
 BV BOUND     C0000011  1.          
ENDATA
