data/MCDM/NO_CORR/GEN_FROM_60/12_ITEMS_1000_GEN/K5012W15.KNP.txt
N 12
M 13
LC 12
LC 13
LC 14
LC 15
LC 16
LC 17
LC 18
LC 19
LC 20
LC 21
LC 22
LC 23
LR 1
LR 2
LR 3
LR 4
LR 5
LR 6
LR 7
LR 8
LR 9
LR 10
LR 11
LR 12
LR 13
LO -675
LO -261
LO -87
LO -660
LO -860
LO -442
LO -546
LO -44
LO -535
LO -253
LO -6
LO -167
OS 1
IC 103
IC 820
IC 565
IC 722
IC 409
IC 979
IC 369
IC 839
IC 844
IC 740
IC 111
IC 678
IB 3590
